F_UNIQ := 6 9 12;
F_NODES[6] := 6 7 8;
F_NODES[9] := 9 10 11;
F_NODES[12] := 12 13 14;
#definition

# set
set V := 1 2 3 4 5 ; 	# customer set
set F := 6 9 12 7 8 10 11 13 14 ;#recharging & battery swapping station
set D0 :=0;
set Dsig :=15;


# param
param CV := 200;    		# ECV fixed cost(Topic Given)
param C := 700;   		# ECV max load
param Q := 77.75; 		# ECV/BSV battery level
param h := 1;     		# ECV consumption

param CB := 267;    		# BSV fixed cost(Topic Given)
param Qplun := 5;       # BSV max load(battery)
param hplun := 1;     	# BSV consumption
param W :=155.50;		# BSV battery level

param Ct := 10;    		# travel cost
param Cr := 100;    		# recharging cost
param lamda := 0.00;	# battery swap time
param Cb ;  	    # battery swap cost(BSS/BSV)
param n :=5;	   		# number of customers
param g :=10.41 ;     	# the recharging rate of ECV 



# customer demend
param m :=
0 0
1 20
2 10
3 20
4 30
5 20
6 0
9 0
12 0
7 0
8 0
10 0
11 0
13 0
14 0
15 0;

param e :=
0 0
1 918
2 2052
3 1295
4 1202
5 1016
6 0
9 0
12 0
7 0
8 0
10 0
11 0
13 0
14 0
15 0;

param l :=
0 3390
1 1558
2 2692
3 1935
4 1842
5 1656
6 3390
9 3390
12 3390
7 3390
8 3390
10 3390
11 3390
13 3390
14 3390
15 3390;

param s :=
0 0
1 90
2 90
3 90
4 90
5 90
6 0
9 0
12 0
7 0
8 0
10 0
11 0
13 0
14 0
15 0;

param d : 0 1 2 3 4 5 6 9 12 7 8 10 11 13 14 15 :=
0 0.0000 40.3113 22.8035 45.2769 45.0444 45.1774 0.0000 37.2022 42.0595 0.0000 0.0000 37.2022 37.2022 42.0595 42.0595 0.0000
1 40.3113 0.0000 29.0689 53.1507 55.1725 59.4643 40.3113 19.7231 44.2041 40.3113 40.3113 19.7231 19.7231 44.2041 44.2041 40.3113
2 22.8035 29.0689 0.0000 28.4605 29.5466 32.4500 22.8035 16.4924 22.0227 22.8035 22.8035 16.4924 16.4924 22.0227 22.0227 22.8035
3 45.2769 53.1507 28.4605 0.0000 3.0000 9.0000 45.2769 33.9706 9.4340 45.2769 45.2769 33.9706 33.9706 9.4340 9.4340 45.2769
4 45.0444 55.1725 29.5466 3.0000 0.0000 6.0000 45.0444 36.2353 12.0830 45.0444 45.0444 36.2353 36.2353 12.0830 12.0830 45.0444
5 45.1774 59.4643 32.4500 9.0000 6.0000 0.0000 45.1774 41.0488 17.7200 45.1774 45.1774 41.0488 41.0488 17.7200 17.7200 45.1774
6 0.0000 40.3113 22.8035 45.2769 45.0444 45.1774 0.0000 37.2022 42.0595 0.0000 0.0000 37.2022 37.2022 42.0595 42.0595 0.0000
9 37.2022 19.7231 16.4924 33.9706 36.2353 41.0488 37.2022 0.0000 24.7588 37.2022 37.2022 0.0000 0.0000 24.7588 24.7588 37.2022
12 42.0595 44.2041 22.0227 9.4340 12.0830 17.7200 42.0595 24.7588 0.0000 42.0595 42.0595 24.7588 24.7588 0.0000 0.0000 42.0595
7 0.0000 40.3113 22.8035 45.2769 45.0444 45.1774 0.0000 37.2022 42.0595 0.0000 0.0000 37.2022 37.2022 42.0595 42.0595 0.0000
8 0.0000 40.3113 22.8035 45.2769 45.0444 45.1774 0.0000 37.2022 42.0595 0.0000 0.0000 37.2022 37.2022 42.0595 42.0595 0.0000
10 37.2022 19.7231 16.4924 33.9706 36.2353 41.0488 37.2022 0.0000 24.7588 37.2022 37.2022 0.0000 0.0000 24.7588 24.7588 37.2022
11 37.2022 19.7231 16.4924 33.9706 36.2353 41.0488 37.2022 0.0000 24.7588 37.2022 37.2022 0.0000 0.0000 24.7588 24.7588 37.2022
13 42.0595 44.2041 22.0227 9.4340 12.0830 17.7200 42.0595 24.7588 0.0000 42.0595 42.0595 24.7588 24.7588 0.0000 0.0000 42.0595
14 42.0595 44.2041 22.0227 9.4340 12.0830 17.7200 42.0595 24.7588 0.0000 42.0595 42.0595 24.7588 24.7588 0.0000 0.0000 42.0595
15 0.0000 40.3113 22.8035 45.2769 45.0444 45.1774 0.0000 37.2022 42.0595 0.0000 0.0000 37.2022 37.2022 42.0595 42.0595 0.0000
;

param t : 0 1 2 3 4 5 6 9 12 7 8 10 11 13 14 15 :=
0 0.0000 40.3113 22.8035 45.2769 45.0444 45.1774 0.0000 37.2022 42.0595 0.0000 0.0000 37.2022 37.2022 42.0595 42.0595 0.0000
1 40.3113 0.0000 29.0689 53.1507 55.1725 59.4643 40.3113 19.7231 44.2041 40.3113 40.3113 19.7231 19.7231 44.2041 44.2041 40.3113
2 22.8035 29.0689 0.0000 28.4605 29.5466 32.4500 22.8035 16.4924 22.0227 22.8035 22.8035 16.4924 16.4924 22.0227 22.0227 22.8035
3 45.2769 53.1507 28.4605 0.0000 3.0000 9.0000 45.2769 33.9706 9.4340 45.2769 45.2769 33.9706 33.9706 9.4340 9.4340 45.2769
4 45.0444 55.1725 29.5466 3.0000 0.0000 6.0000 45.0444 36.2353 12.0830 45.0444 45.0444 36.2353 36.2353 12.0830 12.0830 45.0444
5 45.1774 59.4643 32.4500 9.0000 6.0000 0.0000 45.1774 41.0488 17.7200 45.1774 45.1774 41.0488 41.0488 17.7200 17.7200 45.1774
6 0.0000 40.3113 22.8035 45.2769 45.0444 45.1774 0.0000 37.2022 42.0595 0.0000 0.0000 37.2022 37.2022 42.0595 42.0595 0.0000
9 37.2022 19.7231 16.4924 33.9706 36.2353 41.0488 37.2022 0.0000 24.7588 37.2022 37.2022 0.0000 0.0000 24.7588 24.7588 37.2022
12 42.0595 44.2041 22.0227 9.4340 12.0830 17.7200 42.0595 24.7588 0.0000 42.0595 42.0595 24.7588 24.7588 0.0000 0.0000 42.0595
7 0.0000 40.3113 22.8035 45.2769 45.0444 45.1774 0.0000 37.2022 42.0595 0.0000 0.0000 37.2022 37.2022 42.0595 42.0595 0.0000
8 0.0000 40.3113 22.8035 45.2769 45.0444 45.1774 0.0000 37.2022 42.0595 0.0000 0.0000 37.2022 37.2022 42.0595 42.0595 0.0000
10 37.2022 19.7231 16.4924 33.9706 36.2353 41.0488 37.2022 0.0000 24.7588 37.2022 37.2022 0.0000 0.0000 24.7588 24.7588 37.2022
11 37.2022 19.7231 16.4924 33.9706 36.2353 41.0488 37.2022 0.0000 24.7588 37.2022 37.2022 0.0000 0.0000 24.7588 24.7588 37.2022
13 42.0595 44.2041 22.0227 9.4340 12.0830 17.7200 42.0595 24.7588 0.0000 42.0595 42.0595 24.7588 24.7588 0.0000 0.0000 42.0595
14 42.0595 44.2041 22.0227 9.4340 12.0830 17.7200 42.0595 24.7588 0.0000 42.0595 42.0595 24.7588 24.7588 0.0000 0.0000 42.0595
15 0.0000 40.3113 22.8035 45.2769 45.0444 45.1774 0.0000 37.2022 42.0595 0.0000 0.0000 37.2022 37.2022 42.0595 42.0595 0.0000
;